certificates/rado_a7_c22_N13.cnf
c Rad2 upper bound instance: x1 + 7*x2 - x3 = 22, interval [1,13]
p cnf 13 48
1 4 7 0
-1 -4 -7 0
1 2 3 0
-1 -2 -3 0
2 4 8 0
-2 -4 -8 0
2 3 0
-2 -3 0
3 4 9 0
-3 -4 -9 0
3 4 0
-3 -4 0
4 10 0
-4 -10 0
3 4 5 0
-3 -4 -5 0
4 5 11 0
-4 -5 -11 0
3 5 6 0
-3 -5 -6 0
4 6 12 0
-4 -6 -12 0
3 6 7 0
-3 -6 -7 0
4 7 13 0
-4 -7 -13 0
3 7 8 0
-3 -7 -8 0
1 2 9 0
-1 -2 -9 0
3 8 9 0
-3 -8 -9 0
2 10 0
-2 -10 0
3 9 10 0
-3 -9 -10 0
2 3 11 0
-2 -3 -11 0
3 10 11 0
-3 -10 -11 0
2 4 12 0
-2 -4 -12 0
3 11 12 0
-3 -11 -12 0
2 5 13 0
-2 -5 -13 0
3 12 13 0
-3 -12 -13 0
