certificates/rado_a7_c22_N13.drat
-12 -13 0
d -3 -12 -13 0
-4 -13 0
-13 0
4 0
-3 0
-10 0
2 0
12 0
11 0
9 0
0
